15	2	2
1277	1277	
672	423	447	
376	20	21	
662	621	668	
951	141	144	
51	283	298	
145	288	294	
758	232	236	
754	18	19	
674	866	907	
488	131	131	
24	543	564	
220	157	157	
523	660	673	
745	690	750	
919	38	38	
